
  32    1
  10

   0   0   8 2 3 4 5 6 9 12 13 
   1   1   4 11 10 8 7 
  10   2   4 21 18 16 7 
   9   2   4 21 18 16 8 
   8   1   4 21 17 15 10 
   3   1   6 21 20 18 17 15 14 
   5   2   6 30 23 20 17 15 14 
   6   3   5 30 23 20 15 14 
   5   2   5 30 27 23 21 14 
   2   3   5 31 29 23 18 16 
   5   3   5 31 29 22 20 16 
   7   1   5 29 23 22 20 16 
   7   1   5 31 29 20 19 18 
   1   3   6 31 29 25 24 22 19 
   9   3   6 31 29 27 25 24 22 
   1   2   5 30 27 25 24 19 
   4   2   4 27 26 25 24 
   3   2   3 30 27 24 
   9   2   2 28 26 
   7   2   2 27 25 
   7   2   2 25 24 
   6   1   1 26 
   3   1   1 24 
   6   5   1 32
   8   1   1 32
   6   3   1 32
  10   2   1 32
   9   1   1 32
   8   3   1 32
   6   1   1 32
   9   2   1 32
   0   0   0 
